outputs/case_169.model.txt
funds_fully_guaranteed_by_bank = True
funds_fully_trusted = False
contract_terms_meet_minimum_requirements = True
business_report_prepared_within_4_months = True
financial_report_audited_and_signed = True
board_approval_obtained = True
report_submitted_within_15_days_after_board_approval = True
performance_guarantee_amount_sufficient = True
quarterly_audit_conducted = True
audit_report_submitted_within_1_month_after_quarter = True
performance_guarantee_contract_signed_with_bank = True
trust_contract_meets_regulations = True
trust_contract_missing_mandatory_items = False
internal_control_system_established = True
quarterly_audit_report_submitted = True
illegal_foreign_cooperation = False
annual_report_submitted = True
performance_guarantee_contract_compliance = True
contract_renewal_reported = True
trust_contract_valid = True
foreign_cooperation_approved_by_authority = True
registration_and_payment_restriction = False
contract_renewed_or_new_signed_before_2_months_expiry = True
funds_trust_or_guarantee_compliance = True
penalty = False
internal_control_established = True
renewal_reported_to_authority = True
trust_contract_compliance = True
contract_terms_compliance = True
illegal_foreign_cooperation_penalty_applicable = False